
  32    4
  10   10   10   10

   0   0   0   0   0   1 2 
   2   1   0   1   1   1 3 
   6   6   1   6   0   1 4 
   5   5   4   0   3   1 5 
  10   2   6   0   3   2 21 6 
   2   4   0   5   4   1 7 
   1   0   3   6   8   1 8 
   2   0   7   4   2   2 14 9 
   3   5   3   0   6   1 10 
   4   5   2   3   0   2 31 11 
   3   3   5   0   3   1 12 
  10   2   4   4   0   1 13 
   1   0   2   3   4   1 15 
   1   6   5   0   4   1 15 
   3   6   5   3   0   2 25 16 
   7   5   2   0   5   1 17 
   3   2   0   4   6   1 18 
   4   7   5   3   0   1 19 
   4   5   0   4   3   1 20 
   3   0   4   7   5   1 22 
   9   3   6   4   0   1 22 
   2   8   2   0   4   1 23 
  10   3   0   4   1   2 30 24 
   1   3   0   5   3   2 29 26 
   6   5   0   5   5   2 29 26 
   8   0   7   2   5   1 27 
   4   2   3   0   2   1 28 
   9   4   0   5   3   1 32
   3   2   4   5   0   1 32
   4   1   0   3   4   1 32
   5   5   0   2   8   1 32
   0   0   0   0   0   0 
